Optimal - objective value 101.00000000
      0 y_0_1                    0                       1
      1 y_1_2                    1                       1
      2 y_0_2                    1                     100
      3 f_0_0_1_0                0                       0
      4 f_0_0_2_0                3                       0
      5 f_0_1_2_1                0                       0
      6 f_0_0_2_1                0                       0
      7 f_1_1_0_0                0                       0
      8 f_1_1_2_0                3                       0
      9 f_1_1_2_1                0                       0
     10 f_1_0_2_1                0                       0
